NAME          model
ROWS
 E  R0001
 E  R0002
 E  R0003
 E  R0004
 E  R0005
 E  R0006
 E  R0007
 E  R0008
 E  R0009
 E  R0010
 E  R0011
 E  R0012
 E  R0013
 E  R0014
 E  R0015
 E  R0016
 E  R0017
 E  R0018
 E  R0019
 E  R0020
 E  R0021
 E  R0022
 E  R0023
 L  R0024
 L  R0025
 L  R0026
 L  R0027
 N  R0028
COLUMNS
    C0001     R0001     1
    C0001     R0002     1
    C0001     R0028     456
    C0002     R0001     1
    C0002     R0003     1
    C0002     R0028     452
    C0003     R0001     1
    C0003     R0004     1
    C0003     R0028     701
    C0004     R0001     1
    C0004     R0005     1
    C0004     R0028     841
    C0005     R0001     1
    C0005     R0006     1
    C0005     R0028     584
    C0006     R0001     1
    C0006     R0007     1
    C0006     R0024     1
    C0006     R0028     196
    C0007     R0001     1
    C0007     R0008     1
    C0007     R0028     624
    C0008     R0001     1
    C0008     R0009     1
    C0008     R0028     442
    C0009     R0001     1
    C0009     R0010     1
    C0009     R0028     622
    C0010     R0001     1
    C0010     R0011     1
    C0010     R0028     612
    C0011     R0001     1
    C0011     R0012     1
    C0011     R0028     342
    C0012     R0001     1
    C0012     R0013     1
    C0012     R0028     613
    C0013     R0001     1
    C0013     R0014     1
    C0013     R0028     754
    C0014     R0001     1
    C0014     R0015     1
    C0014     R0028     382
    C0015     R0001     1
    C0015     R0016     1
    C0015     R0028     377
    C0016     R0001     1
    C0016     R0017     1
    C0016     R0028     403
    C0017     R0001     1
    C0017     R0018     1
    C0017     R0024     1
    C0017     R0028     95
    C0018     R0001     1
    C0018     R0019     1
    C0018     R0028     558
    C0019     R0001     1
    C0019     R0020     1
    C0019     R0028     1555
    C0020     R0001     1
    C0020     R0021     1
    C0020     R0028     444
    C0021     R0001     1
    C0021     R0022     1
    C0021     R0028     774
    C0022     R0001     1
    C0022     R0023     1
    C0022     R0028     362
    C0023     R0002     1
    C0023     R0003     1
    C0023     R0028     867
    C0024     R0002     1
    C0024     R0004     1
    C0024     R0028     230
    C0025     R0002     1
    C0025     R0005     1
    C0025     R0028     500
    C0026     R0002     1
    C0026     R0006     1
    C0026     R0028     178
    C0027     R0002     1
    C0027     R0007     1
    C0027     R0028     580
    C0028     R0002     1
    C0028     R0008     1
    C0028     R0028     699
    C0029     R0002     1
    C0029     R0009     1
    C0029     R0028     227
    C0030     R0002     1
    C0030     R0010     1
    C0030     R0026     1
    C0030     R0028     153
    C0031     R0002     1
    C0031     R0011     1
    C0031     R0026     1
    C0031     R0028     210
    C0032     R0002     1
    C0032     R0012     1
    C0032     R0028     356
    C0033     R0002     1
    C0033     R0013     1
    C0033     R0028     219
    C0034     R0002     1
    C0034     R0014     1
    C0034     R0028     1005
    C0035     R0002     1
    C0035     R0015     1
    C0035     R0028     347
    C0036     R0002     1
    C0036     R0016     1
    C0036     R0028     270
    C0037     R0002     1
    C0037     R0017     1
    C0037     R0028     519
    C0038     R0002     1
    C0038     R0018     1
    C0038     R0028     413
    C0039     R0002     1
    C0039     R0019     1
    C0039     R0026     1
    C0039     R0028     102
    C0040     R0002     1
    C0040     R0020     1
    C0040     R0028     1944
    C0041     R0002     1
    C0041     R0021     1
    C0041     R0028     503
    C0042     R0002     1
    C0042     R0022     1
    C0042     R0028     444
    C0043     R0002     1
    C0043     R0023     1
    C0043     R0028     235
    C0044     R0003     1
    C0044     R0004     1
    C0044     R0028     1105
    C0045     R0003     1
    C0045     R0005     1
    C0045     R0028     1251
    C0046     R0003     1
    C0046     R0006     1
    C0046     R0028     1012
    C0047     R0003     1
    C0047     R0007     1
    C0047     R0028     336
    C0048     R0003     1
    C0048     R0008     1
    C0048     R0028     1007
    C0049     R0003     1
    C0049     R0009     1
    C0049     R0028     842
    C0050     R0003     1
    C0050     R0010     1
    C0050     R0028     1050
    C0051     R0003     1
    C0051     R0011     1
    C0051     R0028     1040
    C0052     R0003     1
    C0052     R0012     1
    C0052     R0028     560
    C0053     R0003     1
    C0053     R0013     1
    C0053     R0028     1014
    C0054     R0003     1
    C0054     R0014     1
    C0054     R0028     754
    C0055     R0003     1
    C0055     R0015     1
    C0055     R0028     609
    C0056     R0003     1
    C0056     R0016     1
    C0056     R0028     679
    C0057     R0003     1
    C0057     R0017     1
    C0057     R0028     481
    C0058     R0003     1
    C0058     R0018     1
    C0058     R0028     476
    C0059     R0003     1
    C0059     R0019     1
    C0059     R0028     983
    C0060     R0003     1
    C0060     R0020     1
    C0060     R0028     1023
    C0061     R0003     1
    C0061     R0021     1
    C0061     R0028     498
    C0062     R0003     1
    C0062     R0022     1
    C0062     R0028     1175
    C0063     R0003     1
    C0063     R0023     1
    C0063     R0028     666
    C0064     R0004     1
    C0064     R0005     1
    C0064     R0028     495
    C0065     R0004     1
    C0065     R0006     1
    C0065     R0025     1
    C0065     R0028     128
    C0066     R0004     1
    C0066     R0007     1
    C0066     R0028     812
    C0067     R0004     1
    C0067     R0008     1
    C0067     R0028     691
    C0068     R0004     1
    C0068     R0009     1
    C0068     R0028     257
    C0069     R0004     1
    C0069     R0010     1
    C0069     R0025     1
    C0069     R0026     1
    C0069     R0028     79
    C0070     R0004     1
    C0070     R0011     1
    C0070     R0025     1
    C0070     R0028     215
    C0071     R0004     1
    C0071     R0012     1
    C0071     R0028     567
    C0072     R0004     1
    C0072     R0013     1
    C0072     R0028     223
    C0073     R0004     1
    C0073     R0014     1
    C0073     R0028     1024
    C0074     R0004     1
    C0074     R0015     1
    C0074     R0028     568
    C0075     R0004     1
    C0075     R0016     1
    C0075     R0028     480
    C0076     R0004     1
    C0076     R0017     1
    C0076     R0028     729
    C0077     R0004     1
    C0077     R0018     1
    C0077     R0028     645
    C0078     R0004     1
    C0078     R0019     1
    C0078     R0028     180
    C0079     R0004     1
    C0079     R0020     1
    C0079     R0028     2179
    C0080     R0004     1
    C0080     R0021     1
    C0080     R0028     687
    C0081     R0004     1
    C0081     R0022     1
    C0081     R0028     471
    C0082     R0004     1
    C0082     R0023     1
    C0082     R0028     472
    C0083     R0005     1
    C0083     R0006     1
    C0083     R0028     575
    C0084     R0005     1
    C0084     R0007     1
    C0084     R0028     926
    C0085     R0005     1
    C0085     R0008     1
    C0085     R0028     241
    C0086     R0005     1
    C0086     R0009     1
    C0086     R0028     423
    C0087     R0005     1
    C0087     R0010     1
    C0087     R0028     550
    C0088     R0005     1
    C0088     R0011     1
    C0088     R0028     692
    C0089     R0005     1
    C0089     R0012     1
    C0089     R0028     840
    C0090     R0005     1
    C0090     R0013     1
    C0090     R0028     322
    C0091     R0005     1
    C0091     R0014     1
    C0091     R0028     595
    C0092     R0005     1
    C0092     R0015     1
    C0092     R0028     828
    C0093     R0005     1
    C0093     R0016     1
    C0093     R0028     772
    C0094     R0005     1
    C0094     R0017     1
    C0094     R0028     917
    C0095     R0005     1
    C0095     R0018     1
    C0095     R0028     761
    C0096     R0005     1
    C0096     R0019     1
    C0096     R0028     402
    C0097     R0005     1
    C0097     R0020     1
    C0097     R0028     2256
    C0098     R0005     1
    C0098     R0021     1
    C0098     R0028     981
    C0099     R0005     1
    C0099     R0022     1
    C0099     R0028     54
    C0100     R0005     1
    C0100     R0023     1
    C0100     R0028     740
    C0101     R0006     1
    C0101     R0007     1
    C0101     R0028     710
    C0102     R0006     1
    C0102     R0008     1
    C0102     R0028     774
    C0103     R0006     1
    C0103     R0009     1
    C0103     R0028     338
    C0104     R0006     1
    C0104     R0010     1
    C0104     R0025     1
    C0104     R0028     74
    C0105     R0006     1
    C0105     R0011     1
    C0105     R0025     1
    C0105     R0026     1
    C0105     R0028     128
    C0106     R0006     1
    C0106     R0012     1
    C0106     R0028     450
    C0107     R0006     1
    C0107     R0013     1
    C0107     R0028     306
    C0108     R0006     1
    C0108     R0014     1
    C0108     R0028     1110
    C0109     R0006     1
    C0109     R0015     1
    C0109     R0028     451
    C0110     R0006     1
    C0110     R0016     1
    C0110     R0028     363
    C0111     R0006     1
    C0111     R0017     1
    C0111     R0028     612
    C0112     R0006     1
    C0112     R0018     1
    C0112     R0028     546
    C0113     R0006     1
    C0113     R0019     1
    C0113     R0028     197
    C0114     R0006     1
    C0114     R0020     1
    C0114     R0028     2080
    C0115     R0006     1
    C0115     R0021     1
    C0115     R0028     562
    C0116     R0006     1
    C0116     R0022     1
    C0116     R0028     551
    C0117     R0006     1
    C0117     R0023     1
    C0117     R0028     356
    C0118     R0007     1
    C0118     R0008     1
    C0118     R0028     694
    C0119     R0007     1
    C0119     R0009     1
    C0119     R0028     547
    C0120     R0007     1
    C0120     R0010     1
    C0120     R0028     748
    C0121     R0007     1
    C0121     R0011     1
    C0121     R0028     738
    C0122     R0007     1
    C0122     R0012     1
    C0122     R0028     528
    C0123     R0007     1
    C0123     R0013     1
    C0123     R0028     719
    C0124     R0007     1
    C0124     R0014     1
    C0124     R0028     559
    C0125     R0007     1
    C0125     R0015     1
    C0125     R0028     559
    C0126     R0007     1
    C0126     R0016     1
    C0126     R0028     542
    C0127     R0007     1
    C0127     R0017     1
    C0127     R0028     569
    C0128     R0007     1
    C0128     R0018     1
    C0128     R0024     1
    C0128     R0028     173
    C0129     R0007     1
    C0129     R0019     1
    C0129     R0028     688
    C0130     R0007     1
    C0130     R0020     1
    C0130     R0028     1407
    C0131     R0007     1
    C0131     R0021     1
    C0131     R0028     632
    C0132     R0007     1
    C0132     R0022     1
    C0132     R0028     879
    C0133     R0007     1
    C0133     R0023     1
    C0133     R0028     510
    C0134     R0008     1
    C0134     R0009     1
    C0134     R0028     599
    C0135     R0008     1
    C0135     R0010     1
    C0135     R0028     777
    C0136     R0008     1
    C0136     R0011     1
    C0136     R0028     921
    C0137     R0008     1
    C0137     R0012     1
    C0137     R0028     833
    C0138     R0008     1
    C0138     R0013     1
    C0138     R0028     520
    C0139     R0008     1
    C0139     R0014     1
    C0139     R0028     352
    C0140     R0008     1
    C0140     R0015     1
    C0140     R0028     855
    C0141     R0008     1
    C0141     R0016     1
    C0141     R0028     844
    C0142     R0008     1
    C0142     R0017     1
    C0142     R0028     874
    C0143     R0008     1
    C0143     R0018     1
    C0143     R0028     556
    C0144     R0008     1
    C0144     R0019     1
    C0144     R0028     607
    C0145     R0008     1
    C0145     R0020     1
    C0145     R0028     2020
    C0146     R0008     1
    C0146     R0021     1
    C0146     R0028     937
    C0147     R0008     1
    C0147     R0022     1
    C0147     R0028     275
    C0148     R0008     1
    C0148     R0023     1
    C0148     R0028     817
    C0149     R0009     1
    C0149     R0010     1
    C0149     R0028     311
    C0150     R0009     1
    C0150     R0011     1
    C0150     R0028     455
    C0151     R0009     1
    C0151     R0012     1
    C0151     R0028     399
    C0152     R0009     1
    C0152     R0013     1
    C0152     R0028     172
    C0153     R0009     1
    C0153     R0014     1
    C0153     R0028     908
    C0154     R0009     1
    C0154     R0015     1
    C0154     R0028     383
    C0155     R0009     1
    C0155     R0016     1
    C0155     R0028     367
    C0156     R0009     1
    C0156     R0017     1
    C0156     R0028     497
    C0157     R0009     1
    C0157     R0018     1
    C0157     R0028     366
    C0158     R0009     1
    C0158     R0019     1
    C0158     R0028     141
    C0159     R0009     1
    C0159     R0020     1
    C0159     R0028     1851
    C0160     R0009     1
    C0160     R0021     1
    C0160     R0028     549
    C0161     R0009     1
    C0161     R0022     1
    C0161     R0028     360
    C0162     R0009     1
    C0162     R0023     1
    C0162     R0028     335
    C0163     R0010     1
    C0163     R0011     1
    C0163     R0026     1
    C0163     R0028     162
    C0164     R0010     1
    C0164     R0012     1
    C0164     R0028     487
    C0165     R0010     1
    C0165     R0013     1
    C0165     R0028     281
    C0166     R0010     1
    C0166     R0014     1
    C0166     R0028     1077
    C0167     R0010     1
    C0167     R0015     1
    C0167     R0028     488
    C0168     R0010     1
    C0168     R0016     1
    C0168     R0028     401
    C0169     R0010     1
    C0169     R0017     1
    C0169     R0028     650
    C0170     R0010     1
    C0170     R0018     1
    C0170     R0028     565
    C0171     R0010     1
    C0171     R0019     1
    C0171     R0028     171
    C0172     R0010     1
    C0172     R0020     1
    C0172     R0028     2096
    C0173     R0010     1
    C0173     R0021     1
    C0173     R0028     608
    C0174     R0010     1
    C0174     R0022     1
    C0174     R0028     525
    C0175     R0010     1
    C0175     R0023     1
    C0175     R0028     394
    C0176     R0011     1
    C0176     R0012     1
    C0176     R0028     485
    C0177     R0011     1
    C0177     R0013     1
    C0177     R0028     423
    C0178     R0011     1
    C0178     R0014     1
    C0178     R0028     1146
    C0179     R0011     1
    C0179     R0015     1
    C0179     R0028     483
    C0180     R0011     1
    C0180     R0016     1
    C0180     R0028     399
    C0181     R0011     1
    C0181     R0017     1
    C0181     R0028     619
    C0182     R0011     1
    C0182     R0018     1
    C0182     R0028     584
    C0183     R0011     1
    C0183     R0019     1
    C0183     R0028     314
    C0184     R0011     1
    C0184     R0020     1
    C0184     R0028     2114
    C0185     R0011     1
    C0185     R0021     1
    C0185     R0028     582
    C0186     R0011     1
    C0186     R0022     1
    C0186     R0028     686
    C0187     R0011     1
    C0187     R0023     1
    C0187     R0028     391
    C0188     R0012     1
    C0188     R0013     1
    C0188     R0028     567
    C0189     R0012     1
    C0189     R0014     1
    C0189     R0028     1085
    C0190     R0012     1
    C0190     R0015     1
    C0190     R0027     1
    C0190     R0028     52
    C0191     R0012     1
    C0191     R0016     1
    C0191     R0027     1
    C0191     R0028     86
    C0192     R0012     1
    C0192     R0017     1
    C0192     R0028     160
    C0193     R0012     1
    C0193     R0018     1
    C0193     R0028     431
    C0194     R0012     1
    C0194     R0019     1
    C0194     R0028     462
    C0195     R0012     1
    C0195     R0020     1
    C0195     R0028     1658
    C0196     R0012     1
    C0196     R0021     1
    C0196     R0027     1
    C0196     R0028     180
    C0197     R0012     1
    C0197     R0022     1
    C0197     R0028     774
    C0198     R0012     1
    C0198     R0023     1
    C0198     R0028     122
    C0199     R0013     1
    C0199     R0014     1
    C0199     R0028     853
    C0200     R0013     1
    C0200     R0015     1
    C0200     R0028     570
    C0201     R0013     1
    C0201     R0016     1
    C0201     R0028     490
    C0202     R0013     1
    C0202     R0017     1
    C0202     R0028     676
    C0203     R0013     1
    C0203     R0018     1
    C0203     R0028     538
    C0204     R0013     1
    C0204     R0019     1
    C0204     R0028     121
    C0205     R0013     1
    C0205     R0020     1
    C0205     R0028     2102
    C0206     R0013     1
    C0206     R0021     1
    C0206     R0028     725
    C0207     R0013     1
    C0207     R0022     1
    C0207     R0028     260
    C0208     R0013     1
    C0208     R0023     1
    C0208     R0028     459
    C0209     R0014     1
    C0209     R0015     1
    C0209     R0028     1130
    C0210     R0014     1
    C0210     R0016     1
    C0210     R0028     1119
    C0211     R0014     1
    C0211     R0017     1
    C0211     R0028     1147
    C0212     R0014     1
    C0212     R0018     1
    C0212     R0028     655
    C0213     R0014     1
    C0213     R0019     1
    C0213     R0028     919
    C0214     R0014     1
    C0214     R0020     1
    C0214     R0028     1671
    C0215     R0014     1
    C0215     R0021     1
    C0215     R0028     1211
    C0216     R0014     1
    C0216     R0022     1
    C0216     R0028     628
    C0217     R0014     1
    C0217     R0023     1
    C0217     R0028     1089
    C0218     R0015     1
    C0218     R0016     1
    C0218     R0028     107
    C0219     R0015     1
    C0219     R0017     1
    C0219     R0028     210
    C0220     R0015     1
    C0220     R0018     1
    C0220     R0028     458
    C0221     R0015     1
    C0221     R0019     1
    C0221     R0028     455
    C0222     R0015     1
    C0222     R0020     1
    C0222     R0028     1708
    C0223     R0015     1
    C0223     R0021     1
    C0223     R0028     215
    C0224     R0015     1
    C0224     R0022     1
    C0224     R0028     762
    C0225     R0015     1
    C0225     R0023     1
    C0225     R0028     115
    C0226     R0016     1
    C0226     R0017     1
    C0226     R0028     275
    C0227     R0016     1
    C0227     R0018     1
    C0227     R0028     447
    C0228     R0016     1
    C0228     R0019     1
    C0228     R0028     374
    C0229     R0016     1
    C0229     R0020     1
    C0229     R0028     1825
    C0230     R0016     1
    C0230     R0021     1
    C0230     R0027     1
    C0230     R0028     233
    C0231     R0016     1
    C0231     R0022     1
    C0231     R0028     716
    C0232     R0016     1
    C0232     R0023     1
    C0232     R0027     1
    C0232     R0028     36
    C0233     R0017     1
    C0233     R0018     1
    C0233     R0028     481
    C0234     R0017     1
    C0234     R0019     1
    C0234     R0028     606
    C0235     R0017     1
    C0235     R0020     1
    C0235     R0028     1560
    C0236     R0017     1
    C0236     R0021     1
    C0236     R0027     1
    C0236     R0028     74
    C0237     R0017     1
    C0237     R0022     1
    C0237     R0028     860
    C0238     R0017     1
    C0238     R0023     1
    C0238     R0028     282
    C0239     R0018     1
    C0239     R0019     1
    C0239     R0028     507
    C0240     R0018     1
    C0240     R0020     1
    C0240     R0028     1552
    C0241     R0018     1
    C0241     R0021     1
    C0241     R0028     532
    C0242     R0018     1
    C0242     R0022     1
    C0242     R0028     698
    C0243     R0018     1
    C0243     R0023     1
    C0243     R0028     409
    C0244     R0019     1
    C0244     R0020     1
    C0244     R0028     2045
    C0245     R0019     1
    C0245     R0021     1
    C0245     R0028     606
    C0246     R0019     1
    C0246     R0022     1
    C0246     R0028     346
    C0247     R0019     1
    C0247     R0023     1
    C0247     R0028     337
    C0248     R0020     1
    C0248     R0021     1
    C0248     R0028     1590
    C0249     R0020     1
    C0249     R0022     1
    C0249     R0028     2185
    C0250     R0020     1
    C0250     R0023     1
    C0250     R0028     1761
    C0251     R0021     1
    C0251     R0022     1
    C0251     R0028     890
    C0252     R0021     1
    C0252     R0023     1
    C0252     R0028     269
    C0253     R0022     1
    C0253     R0023     1
    C0253     R0028     677
RHS
    B         R0001     2
    B         R0002     2
    B         R0003     2
    B         R0004     2
    B         R0005     2
    B         R0006     2
    B         R0007     2
    B         R0008     2
    B         R0009     2
    B         R0010     2
    B         R0011     2
    B         R0012     2
    B         R0013     2
    B         R0014     2
    B         R0015     2
    B         R0016     2
    B         R0017     2
    B         R0018     2
    B         R0019     2
    B         R0020     2
    B         R0021     2
    B         R0022     2
    B         R0023     2
    B         R0024     2
    B         R0025     3
    B         R0026     4
    B         R0027     4
BOUNDS
 UP BOUND     C0001     1
 UP BOUND     C0002     1
 UP BOUND     C0003     1
 UP BOUND     C0004     1
 UP BOUND     C0005     1
 UP BOUND     C0006     1
 UP BOUND     C0007     1
 UP BOUND     C0008     1
 UP BOUND     C0009     1
 UP BOUND     C0010     1
 UP BOUND     C0011     1
 UP BOUND     C0012     1
 UP BOUND     C0013     1
 UP BOUND     C0014     1
 UP BOUND     C0015     1
 UP BOUND     C0016     1
 UP BOUND     C0017     1
 UP BOUND     C0018     1
 UP BOUND     C0019     1
 UP BOUND     C0020     1
 UP BOUND     C0021     1
 UP BOUND     C0022     1
 UP BOUND     C0023     1
 UP BOUND     C0024     1
 UP BOUND     C0025     1
 UP BOUND     C0026     1
 UP BOUND     C0027     1
 UP BOUND     C0028     1
 UP BOUND     C0029     1
 UP BOUND     C0030     1
 UP BOUND     C0031     1
 UP BOUND     C0032     1
 UP BOUND     C0033     1
 UP BOUND     C0034     1
 UP BOUND     C0035     1
 UP BOUND     C0036     1
 UP BOUND     C0037     1
 UP BOUND     C0038     1
 UP BOUND     C0039     1
 UP BOUND     C0040     1
 UP BOUND     C0041     1
 UP BOUND     C0042     1
 UP BOUND     C0043     1
 UP BOUND     C0044     1
 UP BOUND     C0045     1
 UP BOUND     C0046     1
 UP BOUND     C0047     1
 UP BOUND     C0048     1
 UP BOUND     C0049     1
 UP BOUND     C0050     1
 UP BOUND     C0051     1
 UP BOUND     C0052     1
 UP BOUND     C0053     1
 UP BOUND     C0054     1
 UP BOUND     C0055     1
 UP BOUND     C0056     1
 UP BOUND     C0057     1
 UP BOUND     C0058     1
 UP BOUND     C0059     1
 UP BOUND     C0060     1
 UP BOUND     C0061     1
 UP BOUND     C0062     1
 UP BOUND     C0063     1
 UP BOUND     C0064     1
 UP BOUND     C0065     1
 UP BOUND     C0066     1
 UP BOUND     C0067     1
 UP BOUND     C0068     1
 UP BOUND     C0069     1
 UP BOUND     C0070     1
 UP BOUND     C0071     1
 UP BOUND     C0072     1
 UP BOUND     C0073     1
 UP BOUND     C0074     1
 UP BOUND     C0075     1
 UP BOUND     C0076     1
 UP BOUND     C0077     1
 UP BOUND     C0078     1
 UP BOUND     C0079     1
 UP BOUND     C0080     1
 UP BOUND     C0081     1
 UP BOUND     C0082     1
 UP BOUND     C0083     1
 UP BOUND     C0084     1
 UP BOUND     C0085     1
 UP BOUND     C0086     1
 UP BOUND     C0087     1
 UP BOUND     C0088     1
 UP BOUND     C0089     1
 UP BOUND     C0090     1
 UP BOUND     C0091     1
 UP BOUND     C0092     1
 UP BOUND     C0093     1
 UP BOUND     C0094     1
 UP BOUND     C0095     1
 UP BOUND     C0096     1
 UP BOUND     C0097     1
 UP BOUND     C0098     1
 UP BOUND     C0099     1
 UP BOUND     C0100     1
 UP BOUND     C0101     1
 UP BOUND     C0102     1
 UP BOUND     C0103     1
 UP BOUND     C0104     1
 UP BOUND     C0105     1
 UP BOUND     C0106     1
 UP BOUND     C0107     1
 UP BOUND     C0108     1
 UP BOUND     C0109     1
 UP BOUND     C0110     1
 UP BOUND     C0111     1
 UP BOUND     C0112     1
 UP BOUND     C0113     1
 UP BOUND     C0114     1
 UP BOUND     C0115     1
 UP BOUND     C0116     1
 UP BOUND     C0117     1
 UP BOUND     C0118     1
 UP BOUND     C0119     1
 UP BOUND     C0120     1
 UP BOUND     C0121     1
 UP BOUND     C0122     1
 UP BOUND     C0123     1
 UP BOUND     C0124     1
 UP BOUND     C0125     1
 UP BOUND     C0126     1
 UP BOUND     C0127     1
 UP BOUND     C0128     1
 UP BOUND     C0129     1
 UP BOUND     C0130     1
 UP BOUND     C0131     1
 UP BOUND     C0132     1
 UP BOUND     C0133     1
 UP BOUND     C0134     1
 UP BOUND     C0135     1
 UP BOUND     C0136     1
 UP BOUND     C0137     1
 UP BOUND     C0138     1
 UP BOUND     C0139     1
 UP BOUND     C0140     1
 UP BOUND     C0141     1
 UP BOUND     C0142     1
 UP BOUND     C0143     1
 UP BOUND     C0144     1
 UP BOUND     C0145     1
 UP BOUND     C0146     1
 UP BOUND     C0147     1
 UP BOUND     C0148     1
 UP BOUND     C0149     1
 UP BOUND     C0150     1
 UP BOUND     C0151     1
 UP BOUND     C0152     1
 UP BOUND     C0153     1
 UP BOUND     C0154     1
 UP BOUND     C0155     1
 UP BOUND     C0156     1
 UP BOUND     C0157     1
 UP BOUND     C0158     1
 UP BOUND     C0159     1
 UP BOUND     C0160     1
 UP BOUND     C0161     1
 UP BOUND     C0162     1
 UP BOUND     C0163     1
 UP BOUND     C0164     1
 UP BOUND     C0165     1
 UP BOUND     C0166     1
 UP BOUND     C0167     1
 UP BOUND     C0168     1
 UP BOUND     C0169     1
 UP BOUND     C0170     1
 UP BOUND     C0171     1
 UP BOUND     C0172     1
 UP BOUND     C0173     1
 UP BOUND     C0174     1
 UP BOUND     C0175     1
 UP BOUND     C0176     1
 UP BOUND     C0177     1
 UP BOUND     C0178     1
 UP BOUND     C0179     1
 UP BOUND     C0180     1
 UP BOUND     C0181     1
 UP BOUND     C0182     1
 UP BOUND     C0183     1
 UP BOUND     C0184     1
 UP BOUND     C0185     1
 UP BOUND     C0186     1
 UP BOUND     C0187     1
 UP BOUND     C0188     1
 UP BOUND     C0189     1
 UP BOUND     C0190     1
 UP BOUND     C0191     1
 UP BOUND     C0192     1
 UP BOUND     C0193     1
 UP BOUND     C0194     1
 UP BOUND     C0195     1
 UP BOUND     C0196     1
 UP BOUND     C0197     1
 UP BOUND     C0198     1
 UP BOUND     C0199     1
 UP BOUND     C0200     1
 UP BOUND     C0201     1
 UP BOUND     C0202     1
 UP BOUND     C0203     1
 UP BOUND     C0204     1
 UP BOUND     C0205     1
 UP BOUND     C0206     1
 UP BOUND     C0207     1
 UP BOUND     C0208     1
 UP BOUND     C0209     1
 UP BOUND     C0210     1
 UP BOUND     C0211     1
 UP BOUND     C0212     1
 UP BOUND     C0213     1
 UP BOUND     C0214     1
 UP BOUND     C0215     1
 UP BOUND     C0216     1
 UP BOUND     C0217     1
 UP BOUND     C0218     1
 UP BOUND     C0219     1
 UP BOUND     C0220     1
 UP BOUND     C0221     1
 UP BOUND     C0222     1
 UP BOUND     C0223     1
 UP BOUND     C0224     1
 UP BOUND     C0225     1
 UP BOUND     C0226     1
 UP BOUND     C0227     1
 UP BOUND     C0228     1
 UP BOUND     C0229     1
 UP BOUND     C0230     1
 UP BOUND     C0231     1
 UP BOUND     C0232     1
 UP BOUND     C0233     1
 UP BOUND     C0234     1
 UP BOUND     C0235     1
 UP BOUND     C0236     1
 UP BOUND     C0237     1
 UP BOUND     C0238     1
 UP BOUND     C0239     1
 UP BOUND     C0240     1
 UP BOUND     C0241     1
 UP BOUND     C0242     1
 UP BOUND     C0243     1
 UP BOUND     C0244     1
 UP BOUND     C0245     1
 UP BOUND     C0246     1
 UP BOUND     C0247     1
 UP BOUND     C0248     1
 UP BOUND     C0249     1
 UP BOUND     C0250     1
 UP BOUND     C0251     1
 UP BOUND     C0252     1
 UP BOUND     C0253     1
ENDATA
